NAME: concorde11
TYPE: TSP
RUN_TIME: 15.096
DISTANCE: 253
COMMENT: Solution by max williams
DIMENSION: 11
EDGE_WEIGHT_TYPE: EUC_2D
NODE_COORD_SECTION
1 20.016340 84.599160
2 20.343138 72.573840
4 11.192810 63.502110
3 14.215686 46.835440
5 27.369282 54.008440
7 48.202614 38.396626
9 78.022870 29.746836
8 89.460785 83.966250
11 63.888890 61.814346
10 53.104576 68.354430
6 39.869280 73.839660
